solution status: optimal solution found
objective value:                                    0
$_33_y                                             12 	(obj:0)
$_33_z                                             15 	(obj:0)
$_35_y                                             13 	(obj:0)
$_35_z                                             13 	(obj:0)
$_30_y                                             13 	(obj:0)
$_30_z                                             17 	(obj:0)
$_34_y                                             12 	(obj:0)
$_34_z                                             17 	(obj:0)
$_32_y                                             12 	(obj:0)
$_32_z                                             13 	(obj:0)
$_31_y                                             13 	(obj:0)
$_31_z                                             14 	(obj:0)
